20
12	290	348	7	27
21	129	329	72	28
42	296	365	4	35
39	53	233	74	21
30	435	389	28	25
36	225	436	51	77
40	266	404	45	51
9	237	333	39	39
32	172	417	22	59
12	102	528	100	73
34	338	497	79	43
30	45	485	72	10
20	352	570	35	92
6	416	450	20	8
33	430	291	64	38
14	231	327	88	91
10	271	403	38	11
35	334	379	40	3
9	29	338	83	86
34	185	271	24	62
